projected/problems_b25_r0_d7_m100_s666/_DIMACS/b25_d7_r0_s666_037.cnf
p cnf 199 306 25
c p show 1 2 3 4 5 6 7 8 9 10 11 12 13 14 15 16 17 18 19 20 21 22 23 24 25
-135 12 0
-135 21 0
-136 -2 0
-136 19 0
-137 136 135 0
-139 -12 10 0
-140 1 0
-140 -7 0
-141 140 139 0
-142 141 0
-142 137 0
-143 2 8 0
-144 -1 14 0
-145 144 0
-145 143 0
-146 -1 0
-146 16 0
-147 17 20 0
-148 147 146 0
-149 148 0
-149 145 0
-150 149 0
-150 142 0
-151 7 0
-151 -16 0
-152 -9 12 0
-153 152 151 0
-154 23 0
-154 -2 0
-155 -15 25 0
-156 155 0
-156 154 0
-157 156 153 0
-158 11 0
-158 -21 0
-159 21 0
-159 -11 0
-160 159 158 0
-161 -10 0
-161 18 0
-162 161 160 0
-163 -13 0
-163 24 0
-164 -5 18 0
-165 164 0
-165 163 0
-166 165 0
-166 162 0
-167 166 157 0
-168 167 0
-168 150 0
-169 19 0
-169 -25 0
-170 22 15 0
-171 170 169 0
-172 17 0
-172 11 0
-173 -13 24 0
-174 173 172 0
-175 174 0
-175 171 0
-176 -25 20 0
-177 -19 0
-177 5 0
-178 177 176 0
-179 25 0
-179 -9 0
-180 3 0
-180 -12 0
-181 180 179 0
-182 181 0
-182 178 0
-183 182 0
-183 175 0
-184 1 0
-184 17 0
-185 -8 0
-185 3 0
-186 185 184 0
-187 -7 -9 0
-188 -2 0
-188 3 0
-189 188 187 0
-190 189 186 0
-191 -20 0
-191 25 0
-192 22 11 0
-193 192 191 0
-194 24 0
-194 -21 0
-195 3 13 0
-196 195 0
-196 194 0
-197 196 0
-197 193 0
-198 197 0
-198 190 0
-199 20 -25 0
-26 -22 0
-26 -11 0
-27 26 0
-27 199 0
-28 -24 21 0
-130 -3 0
-130 -13 0
-131 130 28 0
-132 131 27 0
-133 -1 -17 0
-134 8 -3 0
-138 134 0
-138 133 0
-29 7 0
-29 9 0
-30 2 -3 0
-31 30 0
-31 29 0
-32 31 0
-32 138 0
-33 32 0
-33 132 0
-34 33 198 0
-35 34 0
-35 183 0
-36 35 168 0
-37 25 0
-37 8 0
-38 -15 0
-38 21 0
-39 38 37 0
-40 -21 5 0
-41 -19 0
-41 -10 0
-42 10 0
-42 19 0
-43 42 41 0
-44 43 0
-44 40 0
-45 44 0
-45 39 0
-46 -18 22 0
-47 -22 18 0
-48 47 0
-48 46 0
-49 14 0
-49 -16 0
-50 49 0
-50 48 0
-51 -15 0
-51 -20 0
-52 -10 0
-52 12 0
-53 52 0
-53 51 0
-54 53 0
-54 50 0
-55 54 45 0
-56 4 -16 0
-57 25 0
-57 13 0
-58 -13 0
-58 -25 0
-59 58 57 0
-60 59 56 0
-61 -3 0
-61 11 0
-62 3 0
-62 -24 0
-63 24 0
-63 -3 0
-64 63 62 0
-65 64 61 0
-66 65 0
-66 60 0
-67 -17 13 0
-68 -16 -1 0
-69 68 67 0
-70 -13 0
-70 -18 0
-71 -12 0
-71 -24 0
-72 71 0
-72 70 0
-73 72 69 0
-74 73 66 0
-75 74 55 0
-76 -12 -16 0
-77 11 9 0
-78 77 0
-78 76 0
-79 1 22 0
-80 21 7 0
-81 80 0
-81 79 0
-82 81 78 0
-83 -1 0
-83 -22 0
-84 -21 0
-84 -7 0
-85 84 83 0
-86 12 0
-86 16 0
-87 -11 0
-87 -9 0
-88 87 86 0
-89 88 85 0
-90 89 0
-90 82 0
-91 -2 0
-91 22 0
-92 -6 0
-92 1 0
-93 92 0
-93 91 0
-94 -12 0
-95 -4 19 0
-96 95 0
-96 94 0
-97 4 0
-97 -19 0
-98 12 0
-99 98 0
-99 97 0
-100 99 96 0
-101 100 93 0
-102 97 98 0
-103 94 95 0
-104 103 0
-104 102 0
-105 2 -22 0
-106 6 -1 0
-107 106 105 0
-108 107 104 0
-109 108 0
-109 101 0
-110 109 90 0
-111 16 -18 0
-112 10 0
-112 -7 0
-113 112 111 0
-114 -4 0
-114 22 0
-115 -2 0
-115 -13 0
-116 115 0
-116 114 0
-117 116 0
-117 113 0
-118 13 0
-118 -2 0
-119 -3 0
-119 -12 0
-120 12 0
-120 3 0
-121 120 119 0
-122 121 118 0
-123 -9 -7 0
-124 -7 21 0
-125 124 123 0
-126 125 0
-126 122 0
-127 126 0
-127 117 0
-128 127 0
-128 110 0
-129 128 0
-129 75 0
129 36 0
-191 -199 0
-199 -191 0
-192 -26 0
-26 -192 0
-27 -193 0
-193 -27 0
-28 -194 0
-195 -130 0
-130 -195 0
-131 -196 0
-196 -131 0
-197 -132 0
-133 -184 0
-134 -185 0
-138 -186 0
-29 -187 0
-187 -29 0
-30 -188 0
-188 -30 0
-189 -31 0
-31 -189 0
-32 -190 0
-79 -83 0
-83 -79 0
-84 -80 0
-85 -81 0
-86 -76 0
-87 -77 0
-88 -78 0
-78 -88 0
-97 -95 0
-95 -97 0
-98 -94 0
-104 -100 0
-105 -91 0
-92 -106 0
-106 -92 0
-107 -93 0
-93 -107 0
