projected/problems_b25_r0_d7_m100_s666/b25_d7_r0_s666_037.smt2
(set-logic QF_UF)
(declare-fun A0 () Bool)
(declare-fun A1 () Bool)
(declare-fun A2 () Bool)
(declare-fun A3 () Bool)
(declare-fun A4 () Bool)
(declare-fun A5 () Bool)
(declare-fun A6 () Bool)
(declare-fun A7 () Bool)
(declare-fun A8 () Bool)
(declare-fun A9 () Bool)
(declare-fun A10 () Bool)
(declare-fun A11 () Bool)
(declare-fun A12 () Bool)
(declare-fun A13 () Bool)
(declare-fun A14 () Bool)
(declare-fun A15 () Bool)
(declare-fun A16 () Bool)
(declare-fun A17 () Bool)
(declare-fun A18 () Bool)
(declare-fun A19 () Bool)
(declare-fun A20 () Bool)
(declare-fun A21 () Bool)
(declare-fun A22 () Bool)
(declare-fun A23 () Bool)
(declare-fun A24 () Bool)
(assert (let ((.def_0 (and A11 A20))) (let ((.def_1 (not A18))) (let ((.def_2 (or A1 .def_1))) (let ((.def_3 (not .def_2))) (let ((.def_4 (or .def_3 .def_0))) (let ((.def_5 (not A9))) (let ((.def_6 (and A11 .def_5))) (let ((.def_7 (not A6))) (let ((.def_8 (and A0 .def_7))) (let ((.def_9 (not .def_8))) (let ((.def_10 (and .def_9 .def_6))) (let ((.def_11 (not .def_10))) (let ((.def_12 (and .def_11 .def_4))) (let ((.def_13 (not A7))) (let ((.def_14 (not A1))) (let ((.def_15 (and .def_14 .def_13))) (let ((.def_16 (not .def_15))) (let ((.def_17 (not A13))) (let ((.def_18 (and A0 .def_17))) (let ((.def_19 (not .def_18))) (let ((.def_20 (and .def_19 .def_16))) (let ((.def_21 (not A15))) (let ((.def_22 (or A0 .def_21))) (let ((.def_23 (not A19))) (let ((.def_24 (not A16))) (let ((.def_25 (and .def_24 .def_23))) (let ((.def_26 (and .def_25 .def_22))) (let ((.def_27 (not .def_26))) (let ((.def_28 (and .def_27 .def_20))) (let ((.def_29 (and .def_28 .def_12))) (let ((.def_30 (not .def_29))) (let ((.def_31 (or .def_7 A15))) (let ((.def_32 (not A8))) (let ((.def_33 (or .def_32 A11))) (let ((.def_34 (not .def_33))) (let ((.def_35 (and .def_34 .def_31))) (let ((.def_36 (not A22))) (let ((.def_37 (or .def_36 A1))) (let ((.def_38 (not .def_37))) (let ((.def_39 (not A24))) (let ((.def_40 (and A14 .def_39))) (let ((.def_41 (not .def_40))) (let ((.def_42 (and .def_41 .def_38))) (let ((.def_43 (not .def_42))) (let ((.def_44 (and .def_43 .def_35))) (let ((.def_45 (= A20 A10))) (let ((.def_46 (not A17))) (let ((.def_47 (or A9 .def_46))) (let ((.def_48 (and .def_47 .def_45))) (let ((.def_49 (not A12))) (let ((.def_50 (and .def_49 A23))) (let ((.def_51 (and A4 .def_46))) (let ((.def_52 (not .def_51))) (let ((.def_53 (and .def_52 .def_50))) (let ((.def_54 (not .def_53))) (let ((.def_55 (or .def_54 .def_48))) (let ((.def_56 (and .def_55 .def_44))) (let ((.def_57 (or .def_56 .def_30))) (let ((.def_58 (or .def_1 A24))) (let ((.def_59 (not A14))) (let ((.def_60 (not A21))) (let ((.def_61 (and .def_60 .def_59))) (let ((.def_62 (and .def_61 .def_58))) (let ((.def_63 (not .def_62))) (let ((.def_64 (and A16 A10))) (let ((.def_65 (not .def_64))) (let ((.def_66 (not A23))) (let ((.def_67 (and A12 .def_66))) (let ((.def_68 (and .def_67 .def_65))) (let ((.def_69 (not .def_68))) (let ((.def_70 (and .def_69 .def_63))) (let ((.def_71 (not .def_70))) (let ((.def_72 (and A24 .def_23))) (let ((.def_73 (and .def_1 A4))) (let ((.def_74 (not .def_73))) (let ((.def_75 (and .def_74 .def_72))) (let ((.def_76 (and A24 .def_32))) (let ((.def_77 (not A2))) (let ((.def_78 (or .def_77 A11))) (let ((.def_79 (not .def_78))) (let ((.def_80 (or .def_79 .def_76))) (let ((.def_81 (not .def_80))) (let ((.def_82 (or .def_81 .def_75))) (let ((.def_83 (or .def_82 .def_71))) (let ((.def_84 (and .def_23 A24))) (let ((.def_85 (not .def_84))) (let ((.def_86 (or A21 A10))) (let ((.def_87 (not .def_86))) (let ((.def_88 (and .def_87 .def_85))) (let ((.def_89 (not .def_88))) (let ((.def_90 (or .def_66 A20))) (let ((.def_91 (or A2 A12))) (let ((.def_92 (not .def_91))) (let ((.def_93 (or .def_92 .def_90))) (let ((.def_94 (not .def_93))) (let ((.def_95 (and .def_94 .def_89))) (let ((.def_96 (not A0))) (let ((.def_97 (or .def_96 .def_24))) (let ((.def_98 (or A7 .def_77))) (let ((.def_99 (and .def_98 .def_97))) (let ((.def_100 (and A6 A8))) (let ((.def_101 (not .def_100))) (let ((.def_102 (or A1 .def_77))) (let ((.def_103 (not .def_102))) (let ((.def_104 (or .def_103 .def_101))) (let ((.def_105 (not .def_104))) (let ((.def_106 (and .def_105 .def_99))) (let ((.def_107 (= .def_106 .def_95))) (let ((.def_108 (or .def_107 .def_83))) (let ((.def_109 (and .def_108 .def_57))) (let ((.def_110 (or .def_39 .def_13))) (let ((.def_111 (not .def_110))) (let ((.def_112 (and .def_59 A20))) (let ((.def_113 (or .def_112 .def_111))) (let ((.def_114 (not A20))) (let ((.def_115 (or .def_114 A4))) (let ((.def_116 (= A9 .def_1))) (let ((.def_117 (not .def_116))) (let ((.def_118 (and .def_117 .def_115))) (let ((.def_119 (and .def_118 .def_113))) (let ((.def_120 (= A21 A17))) (let ((.def_121 (not .def_120))) (let ((.def_122 (and A13 .def_21))) (let ((.def_123 (not .def_122))) (let ((.def_124 (or .def_123 .def_121))) (let ((.def_125 (and .def_59 .def_23))) (let ((.def_126 (not .def_125))) (let ((.def_127 (and .def_5 A11))) (let ((.def_128 (not .def_127))) (let ((.def_129 (or .def_128 .def_126))) (let ((.def_130 (or .def_129 .def_124))) (let ((.def_131 (not .def_130))) (let ((.def_132 (or .def_131 .def_119))) (let ((.def_133 (not A3))) (let ((.def_134 (and .def_133 A15))) (let ((.def_135 (not .def_134))) (let ((.def_136 (= .def_49 A24))) (let ((.def_137 (not .def_136))) (let ((.def_138 (or .def_137 .def_135))) (let ((.def_139 (and .def_77 A10))) (let ((.def_140 (= A23 A2))) (let ((.def_141 (not .def_140))) (let ((.def_142 (or .def_141 .def_139))) (let ((.def_143 (and .def_142 .def_138))) (let ((.def_144 (not .def_143))) (let ((.def_145 (and A16 .def_49))) (let ((.def_146 (or .def_21 .def_96))) (let ((.def_147 (not .def_146))) (let ((.def_148 (and .def_147 .def_145))) (let ((.def_149 (not .def_148))) (let ((.def_150 (or A12 A17))) (let ((.def_151 (not .def_150))) (let ((.def_152 (not A11))) (let ((.def_153 (and .def_152 .def_66))) (let ((.def_154 (and .def_153 .def_151))) (let ((.def_155 (or .def_154 .def_149))) (let ((.def_156 (not .def_155))) (let ((.def_157 (and .def_156 .def_144))) (let ((.def_158 (not .def_157))) (let ((.def_159 (or .def_158 .def_132))) (let ((.def_160 (not .def_159))) (let ((.def_161 (or A0 A21))) (let ((.def_162 (not .def_161))) (let ((.def_163 (and .def_114 .def_7))) (let ((.def_164 (or .def_163 .def_162))) (let ((.def_165 (and A11 A15))) (let ((.def_166 (not A10))) (let ((.def_167 (and .def_166 .def_32))) (let ((.def_168 (or .def_167 .def_165))) (let ((.def_169 (not .def_168))) (let ((.def_170 (= .def_169 .def_164))) (let ((.def_171 (and A3 .def_1))) (let ((.def_172 (not .def_171))) (let ((.def_173 (or A11 A11))) (let ((.def_174 (= .def_173 .def_172))) (let ((.def_175 (or A1 .def_60))) (let ((.def_176 (not A5))) (let ((.def_177 (and .def_176 A0))) (let ((.def_178 (not .def_177))) (let ((.def_179 (or .def_178 .def_175))) (let ((.def_180 (not .def_179))) (let ((.def_181 (= .def_180 .def_174))) (let ((.def_182 (or .def_181 .def_170))) (let ((.def_183 (and .def_21 A17))) (let ((.def_184 (or .def_5 A6))) (let ((.def_185 (and .def_184 .def_183))) (let ((.def_186 (and .def_133 A21))) (let ((.def_187 (not .def_186))) (let ((.def_188 (or A1 A12))) (let ((.def_189 (or .def_188 .def_187))) (let ((.def_190 (or .def_189 .def_185))) (let ((.def_191 (or .def_49 A1))) (let ((.def_192 (= A11 .def_77))) (let ((.def_193 (and .def_192 .def_191))) (let ((.def_194 (not .def_193))) (let ((.def_195 (and A8 A6))) (let ((.def_196 (not .def_195))) (let ((.def_197 (or .def_7 A20))) (let ((.def_198 (or .def_197 .def_196))) (let ((.def_199 (and .def_198 .def_194))) (let ((.def_200 (not .def_199))) (let ((.def_201 (or .def_200 .def_190))) (let ((.def_202 (not .def_201))) (let ((.def_203 (and .def_202 .def_182))) (let ((.def_204 (not .def_203))) (let ((.def_205 (or .def_204 .def_160))) (let ((.def_206 (and .def_205 .def_109))) (let ((.def_207 (not .def_206))) .def_207)))))))))))))))))))))))))))))))))))))))))))))))))))))))))))))))))))))))))))))))))))))))))))))))))))))))))))))))))))))))))))))))))))))))))))))))))))))))))))))))))))))))))))))))))))))))))))))))))))))))))))))))))
(check-sat)
